problems/csplib-prob015/SchursLemma-models/noch/O2/lingeling/model_1_3-5-12-solution000001.eprime-solution
language ESSENCE' 1.0

letting boxes_PartitionAsSet_ExplicitR5_ExplicitVarSizeWithMarker_Marker be [2, 2, 2, 3, 3; int(1..5)]
letting boxes_PartitionAsSet_ExplicitR5_ExplicitVarSizeWithMarker_Values be
        [[1, 2, 1, 1, 1, 1, 1, 1, 1, 1, 1, 1; int(1..12)], [3, 6, 1, 1, 1, 1, 1, 1, 1, 1, 1, 1; int(1..12)],
         [4, 10, 1, 1, 1, 1, 1, 1, 1, 1, 1, 1; int(1..12)], [5, 9, 11, 1, 1, 1, 1, 1, 1, 1, 1, 1; int(1..12)],
         [7, 8, 12, 1, 1, 1, 1, 1, 1, 1, 1, 1; int(1..12)]; int(1..5)]
