problems/csplib-prob015/SchursLemma-models/noch/O2/lingeling/model_1_3-5-12-solution000001.solution
language Essence 1.3

letting boxes be partition({1, 2}, {3, 6}, {4, 10}, {5, 9, 11}, {7, 8, 12})
